Route #1: 26 58 38 65 10 31 32 44 3 51 17
Route #2: 12 40 72 39 9 25 55 50 18 24 49 56 23
Route #3: 16 63 33 73 1 43 41 42 64 22 62 2
Route #4: 30 74 28 61 69 36 71 60 70 20 37 15 57 13 54
Route #5: 45 29 48 21 47 5 27 52 8 46 34
Route #6: 35 19 14 59 66 11 53 7
Route #7: 67 4 68 6 75
Cost 737